nN = 8;
nR = 40;
nH = 1;

a = [[15, 15, 25, 25, 24, 21, 16, 19, 20, 17, 24, 24, 19, 20, 20, 20, 22, 17, 20, 15, 17, 17, 20, 15, 18, 19, 25, 18, 16, 16, 16, 25, 16, 20, 22, 25, 24, 25, 15, 21], [20, 18, 17, 18, 17, 15, 25, 23, 16, 23, 17, 15, 21, 17, 21, 23, 24, 19, 18, 24, 22, 20, 18, 18, 22, 15, 17, 19, 25, 20, 19, 22, 22, 23, 25, 22, 19, 24, 21, 18], [25, 20, 20, 25, 15, 17, 20, 17, 17, 18, 22, 18, 21, 17, 21, 21, 20, 25, 23, 15, 16, 24, 22, 17, 23, 25, 15, 25, 24, 23, 16, 24, 20, 18, 23, 24, 17, 25, 19, 20], [21, 21, 17, 25, 20, 18, 15, 20, 22, 21, 22, 17, 24, 25, 25, 23, 20, 16, 17, 20, 19, 25, 22, 15, 18, 18, 23, 15, 18, 15, 22, 18, 25, 18, 16, 21, 22, 17, 19, 23], [17, 19, 16, 20, 16, 22, 16, 15, 21, 22, 23, 23, 20, 23, 16, 25, 19, 21, 20, 22, 15, 19, 23, 17, 23, 20, 15, 18, 15, 15, 24, 24, 25, 15, 17, 21, 23, 20, 19, 16], [23, 20, 25, 24, 21, 20, 22, 24, 17, 20, 17, 19, 20, 23, 22, 24, 20, 20, 23, 24, 24, 24, 20, 21, 20, 15, 19, 20, 16, 25, 21, 23, 21, 21, 18, 23, 18, 16, 22, 22], [16, 22, 15, 22, 15, 18, 19, 18, 24, 16, 17, 18, 19, 15, 18, 19, 15, 15, 19, 21, 16, 22, 23, 16, 21, 20, 21, 21, 18, 20, 23, 22, 22, 23, 15, 20, 17, 23, 23, 18], [21, 24, 15, 19, 23, 15, 16, 22, 15, 23, 17, 25, 21, 22, 25, 17, 24, 20, 17, 15, 24, 19, 18, 25, 20, 21, 22, 18, 20, 16, 18, 18, 20, 24, 19, 15, 23, 18, 21, 16]];
c = [[[0, 0, 0, 0, 0, 0, 0, 0, 0, 0, 0, 0, 0, 0, 0, 0, 0, 0, 0, 0, 0, 0, 0, 0, 0, 0, 0, 0, 0, 0, 0, 0, 0, 0, 0, 0, 0, 0, 0, 0], [37, 41, 48, 35, 37, 33, 37, 32, 42, 50, 34, 46, 47, 44, 30, 36, 40, 35, 39, 35, 45, 49, 35, 30, 44, 47, 39, 42, 42, 37, 42, 49, 43, 33, 42, 37, 47, 43, 50, 48], [47, 50, 32, 40, 41, 35, 31, 46, 41, 35, 38, 34, 50, 36, 37, 36, 39, 50, 48, 37, 43, 36, 41, 32, 47, 50, 43, 32, 43, 33, 31, 38, 32, 34, 31, 50, 46, 37, 31, 44], [36, 36, 41, 42, 32, 47, 32, 41, 44, 36, 43, 46, 33, 39, 36, 30, 30, 32, 42, 38, 48, 36, 47, 31, 45, 43, 41, 47, 38, 44, 38, 42, 44, 49, 46, 30, 42, 33, 41, 36], [41, 43, 31, 48, 36, 49, 44, 49, 41, 31, 41, 50, 41, 45, 49, 49, 32, 41, 39, 37, 48, 48, 50, 33, 35, 41, 33, 35, 42, 31, 50, 46, 48, 36, 30, 36, 31, 33, 30, 41], [35, 44, 48, 39, 43, 36, 36, 32, 32, 45, 36, 43, 45, 46, 32, 36, 48, 42, 33, 32, 48, 39, 42, 32, 46, 47, 38, 31, 40, 42, 44, 38, 44, 47, 45, 33, 40, 38, 47, 32], [34, 50, 39, 34, 42, 30, 33, 44, 41, 33, 45, 46, 45, 36, 31, 47, 48, 44, 42, 39, 36, 32, 38, 49, 47, 33, 50, 45, 38, 49, 39, 43, 39, 43, 50, 31, 34, 31, 34, 42], [42, 37, 35, 32, 44, 45, 41, 43, 30, 41, 37, 42, 45, 45, 32, 40, 45, 48, 48, 46, 43, 41, 44, 35, 35, 45, 46, 34, 34, 31, 37, 41, 42, 34, 50, 32, 36, 35, 48, 41]], [[0, 0, 0, 0, 0, 0, 0, 0, 0, 0, 0, 0, 0, 0, 0, 0, 0, 0, 0, 0, 0, 0, 0, 0, 0, 0, 0, 0, 0, 0, 0, 0, 0, 0, 0, 0, 0, 0, 0, 0], [0, 0, 0, 0, 0, 0, 0, 0, 0, 0, 0, 0, 0, 0, 0, 0, 0, 0, 0, 0, 0, 0, 0, 0, 0, 0, 0, 0, 0, 0, 0, 0, 0, 0, 0, 0, 0, 0, 0, 0], [45, 48, 44, 34, 45, 39, 43, 41, 36, 35, 36, 45, 49, 34, 44, 41, 35, 48, 30, 44, 49, 34, 49, 44, 35, 33, 47, 35, 32, 38, 32, 31, 46, 38, 31, 30, 50, 41, 45, 30], [38, 39, 48, 45, 38, 44, 41, 44, 36, 48, 49, 38, 49, 42, 45, 35, 43, 49, 47, 47, 50, 36, 37, 46, 30, 40, 46, 34, 42, 46, 50, 41, 49, 46, 48, 37, 34, 38, 31, 45], [45, 32, 39, 35, 40, 46, 30, 33, 50, 42, 40, 47, 36, 32, 38, 44, 41, 34, 33, 42, 37, 40, 44, 47, 32, 33, 44, 34, 34, 38, 46, 50, 36, 36, 39, 39, 31, 37, 40, 47], [47, 48, 43, 47, 49, 40, 50, 49, 49, 32, 35, 48, 50, 48, 34, 48, 45, 39, 30, 44, 49, 39, 37, 44, 31, 42, 33, 31, 35, 40, 33, 45, 41, 30, 39, 41, 37, 45, 42, 37], [37, 31, 32, 34, 34, 35, 32, 45, 33, 41, 42, 42, 45, 40, 35, 32, 50, 36, 41, 50, 43, 45, 44, 35, 46, 31, 43, 38, 36, 30, 42, 48, 48, 33, 42, 33, 46, 31, 40, 37], [32, 38, 32, 48, 34, 41, 35, 48, 44, 37, 40, 36, 42, 35, 30, 38, 35, 36, 50, 48, 38, 45, 50, 37, 35, 42, 31, 50, 39, 47, 42, 31, 48, 49, 33, 42, 37, 31, 40, 49]], [[0, 0, 0, 0, 0, 0, 0, 0, 0, 0, 0, 0, 0, 0, 0, 0, 0, 0, 0, 0, 0, 0, 0, 0, 0, 0, 0, 0, 0, 0, 0, 0, 0, 0, 0, 0, 0, 0, 0, 0], [0, 0, 0, 0, 0, 0, 0, 0, 0, 0, 0, 0, 0, 0, 0, 0, 0, 0, 0, 0, 0, 0, 0, 0, 0, 0, 0, 0, 0, 0, 0, 0, 0, 0, 0, 0, 0, 0, 0, 0], [0, 0, 0, 0, 0, 0, 0, 0, 0, 0, 0, 0, 0, 0, 0, 0, 0, 0, 0, 0, 0, 0, 0, 0, 0, 0, 0, 0, 0, 0, 0, 0, 0, 0, 0, 0, 0, 0, 0, 0], [34, 35, 32, 40, 34, 47, 41, 42, 44, 35, 42, 38, 34, 49, 39, 33, 30, 42, 40, 48, 45, 44, 45, 44, 44, 38, 47, 48, 47, 33, 43, 33, 36, 45, 47, 50, 34, 43, 44, 36], [30, 48, 37, 34, 33, 39, 38, 34, 33, 48, 38, 38, 39, 30, 37, 34, 47, 35, 35, 33, 47, 48, 42, 44, 46, 46, 31, 31, 36, 42, 41, 35, 39, 42, 32, 37, 50, 37, 43, 48], [41, 45, 37, 46, 47, 33, 49, 40, 38, 32, 31, 30, 49, 47, 39, 45, 46, 32, 30, 33, 30, 30, 48, 38, 44, 48, 33, 45, 32, 45, 48, 31, 43, 31, 44, 31, 47, 47, 35, 41], [32, 44, 32, 30, 31, 41, 32, 30, 50, 49, 36, 42, 33, 36, 36, 30, 49, 46, 34, 37, 45, 49, 41, 48, 43, 34, 39, 50, 39, 41, 49, 35, 40, 32, 49, 50, 38, 39, 33, 34], [35, 44, 50, 33, 40, 41, 37, 43, 46, 39, 32, 39, 43, 35, 43, 50, 50, 48, 36, 50, 30, 43, 46, 46, 48, 43, 38, 46, 40, 30, 49, 44, 49, 31, 34, 38, 32, 41, 48, 34]], [[0, 0, 0, 0, 0, 0, 0, 0, 0, 0, 0, 0, 0, 0, 0, 0, 0, 0, 0, 0, 0, 0, 0, 0, 0, 0, 0, 0, 0, 0, 0, 0, 0, 0, 0, 0, 0, 0, 0, 0], [0, 0, 0, 0, 0, 0, 0, 0, 0, 0, 0, 0, 0, 0, 0, 0, 0, 0, 0, 0, 0, 0, 0, 0, 0, 0, 0, 0, 0, 0, 0, 0, 0, 0, 0, 0, 0, 0, 0, 0], [0, 0, 0, 0, 0, 0, 0, 0, 0, 0, 0, 0, 0, 0, 0, 0, 0, 0, 0, 0, 0, 0, 0, 0, 0, 0, 0, 0, 0, 0, 0, 0, 0, 0, 0, 0, 0, 0, 0, 0], [0, 0, 0, 0, 0, 0, 0, 0, 0, 0, 0, 0, 0, 0, 0, 0, 0, 0, 0, 0, 0, 0, 0, 0, 0, 0, 0, 0, 0, 0, 0, 0, 0, 0, 0, 0, 0, 0, 0, 0], [35, 48, 36, 50, 37, 30, 48, 44, 50, 38, 46, 34, 43, 33, 30, 43, 31, 47, 49, 48, 42, 46, 39, 46, 49, 39, 49, 36, 39, 41, 47, 39, 44, 32, 30, 38, 32, 49, 49, 47], [36, 47, 49, 44, 49, 44, 42, 48, 41, 47, 31, 38, 37, 36, 42, 50, 50, 43, 43, 36, 36, 39, 44, 49, 37, 35, 33, 36, 48, 43, 44, 48, 48, 40, 40, 42, 38, 39, 34, 36], [33, 45, 40, 45, 30, 44, 39, 31, 48, 37, 42, 48, 39, 46, 46, 47, 38, 35, 41, 43, 40, 33, 34, 39, 40, 45, 41, 47, 30, 45, 40, 50, 33, 31, 49, 37, 43, 35, 46, 50], [41, 49, 44, 47, 39, 43, 33, 40, 41, 37, 34, 45, 44, 32, 32, 30, 43, 49, 45, 47, 41, 43, 35, 43, 33, 47, 41, 32, 30, 36, 42, 38, 31, 47, 33, 47, 46, 32, 40, 49]], [[0, 0, 0, 0, 0, 0, 0, 0, 0, 0, 0, 0, 0, 0, 0, 0, 0, 0, 0, 0, 0, 0, 0, 0, 0, 0, 0, 0, 0, 0, 0, 0, 0, 0, 0, 0, 0, 0, 0, 0], [0, 0, 0, 0, 0, 0, 0, 0, 0, 0, 0, 0, 0, 0, 0, 0, 0, 0, 0, 0, 0, 0, 0, 0, 0, 0, 0, 0, 0, 0, 0, 0, 0, 0, 0, 0, 0, 0, 0, 0], [0, 0, 0, 0, 0, 0, 0, 0, 0, 0, 0, 0, 0, 0, 0, 0, 0, 0, 0, 0, 0, 0, 0, 0, 0, 0, 0, 0, 0, 0, 0, 0, 0, 0, 0, 0, 0, 0, 0, 0], [0, 0, 0, 0, 0, 0, 0, 0, 0, 0, 0, 0, 0, 0, 0, 0, 0, 0, 0, 0, 0, 0, 0, 0, 0, 0, 0, 0, 0, 0, 0, 0, 0, 0, 0, 0, 0, 0, 0, 0], [0, 0, 0, 0, 0, 0, 0, 0, 0, 0, 0, 0, 0, 0, 0, 0, 0, 0, 0, 0, 0, 0, 0, 0, 0, 0, 0, 0, 0, 0, 0, 0, 0, 0, 0, 0, 0, 0, 0, 0], [31, 30, 35, 41, 34, 47, 47, 50, 40, 34, 39, 33, 34, 44, 47, 30, 48, 49, 31, 43, 41, 32, 40, 39, 41, 32, 37, 37, 46, 48, 44, 34, 47, 49, 47, 45, 44, 50, 35, 40], [44, 38, 30, 37, 40, 40, 32, 39, 41, 30, 45, 39, 48, 37, 50, 44, 47, 46, 32, 42, 39, 43, 35, 35, 38, 40, 45, 40, 34, 42, 37, 50, 34, 43, 41, 50, 46, 46, 39, 46], [40, 38, 33, 39, 44, 39, 44, 48, 34, 38, 41, 43, 37, 30, 41, 43, 45, 35, 36, 43, 49, 34, 31, 33, 45, 41, 34, 38, 39, 45, 37, 50, 38, 41, 32, 48, 50, 32, 34, 42]], [[0, 0, 0, 0, 0, 0, 0, 0, 0, 0, 0, 0, 0, 0, 0, 0, 0, 0, 0, 0, 0, 0, 0, 0, 0, 0, 0, 0, 0, 0, 0, 0, 0, 0, 0, 0, 0, 0, 0, 0], [0, 0, 0, 0, 0, 0, 0, 0, 0, 0, 0, 0, 0, 0, 0, 0, 0, 0, 0, 0, 0, 0, 0, 0, 0, 0, 0, 0, 0, 0, 0, 0, 0, 0, 0, 0, 0, 0, 0, 0], [0, 0, 0, 0, 0, 0, 0, 0, 0, 0, 0, 0, 0, 0, 0, 0, 0, 0, 0, 0, 0, 0, 0, 0, 0, 0, 0, 0, 0, 0, 0, 0, 0, 0, 0, 0, 0, 0, 0, 0], [0, 0, 0, 0, 0, 0, 0, 0, 0, 0, 0, 0, 0, 0, 0, 0, 0, 0, 0, 0, 0, 0, 0, 0, 0, 0, 0, 0, 0, 0, 0, 0, 0, 0, 0, 0, 0, 0, 0, 0], [0, 0, 0, 0, 0, 0, 0, 0, 0, 0, 0, 0, 0, 0, 0, 0, 0, 0, 0, 0, 0, 0, 0, 0, 0, 0, 0, 0, 0, 0, 0, 0, 0, 0, 0, 0, 0, 0, 0, 0], [0, 0, 0, 0, 0, 0, 0, 0, 0, 0, 0, 0, 0, 0, 0, 0, 0, 0, 0, 0, 0, 0, 0, 0, 0, 0, 0, 0, 0, 0, 0, 0, 0, 0, 0, 0, 0, 0, 0, 0], [45, 36, 47, 33, 46, 34, 32, 42, 49, 38, 40, 44, 45, 31, 49, 43, 40, 41, 34, 40, 30, 43, 36, 48, 37, 38, 41, 34, 45, 46, 41, 43, 42, 42, 30, 41, 30, 34, 33, 36], [31, 42, 45, 47, 48, 31, 41, 39, 48, 42, 48, 39, 39, 44, 49, 31, 40, 48, 34, 39, 49, 36, 48, 34, 44, 38, 50, 43, 40, 49, 39, 45, 36, 37, 33, 32, 43, 31, 50, 35]], [[0, 0, 0, 0, 0, 0, 0, 0, 0, 0, 0, 0, 0, 0, 0, 0, 0, 0, 0, 0, 0, 0, 0, 0, 0, 0, 0, 0, 0, 0, 0, 0, 0, 0, 0, 0, 0, 0, 0, 0], [0, 0, 0, 0, 0, 0, 0, 0, 0, 0, 0, 0, 0, 0, 0, 0, 0, 0, 0, 0, 0, 0, 0, 0, 0, 0, 0, 0, 0, 0, 0, 0, 0, 0, 0, 0, 0, 0, 0, 0], [0, 0, 0, 0, 0, 0, 0, 0, 0, 0, 0, 0, 0, 0, 0, 0, 0, 0, 0, 0, 0, 0, 0, 0, 0, 0, 0, 0, 0, 0, 0, 0, 0, 0, 0, 0, 0, 0, 0, 0], [0, 0, 0, 0, 0, 0, 0, 0, 0, 0, 0, 0, 0, 0, 0, 0, 0, 0, 0, 0, 0, 0, 0, 0, 0, 0, 0, 0, 0, 0, 0, 0, 0, 0, 0, 0, 0, 0, 0, 0], [0, 0, 0, 0, 0, 0, 0, 0, 0, 0, 0, 0, 0, 0, 0, 0, 0, 0, 0, 0, 0, 0, 0, 0, 0, 0, 0, 0, 0, 0, 0, 0, 0, 0, 0, 0, 0, 0, 0, 0], [0, 0, 0, 0, 0, 0, 0, 0, 0, 0, 0, 0, 0, 0, 0, 0, 0, 0, 0, 0, 0, 0, 0, 0, 0, 0, 0, 0, 0, 0, 0, 0, 0, 0, 0, 0, 0, 0, 0, 0], [0, 0, 0, 0, 0, 0, 0, 0, 0, 0, 0, 0, 0, 0, 0, 0, 0, 0, 0, 0, 0, 0, 0, 0, 0, 0, 0, 0, 0, 0, 0, 0, 0, 0, 0, 0, 0, 0, 0, 0], [33, 48, 49, 31, 49, 43, 40, 38, 49, 31, 50, 49, 44, 36, 31, 34, 49, 41, 36, 40, 36, 44, 48, 45, 35, 32, 39, 47, 36, 34, 32, 34, 46, 39, 40, 41, 36, 48, 30, 50]], [[0, 0, 0, 0, 0, 0, 0, 0, 0, 0, 0, 0, 0, 0, 0, 0, 0, 0, 0, 0, 0, 0, 0, 0, 0, 0, 0, 0, 0, 0, 0, 0, 0, 0, 0, 0, 0, 0, 0, 0], [0, 0, 0, 0, 0, 0, 0, 0, 0, 0, 0, 0, 0, 0, 0, 0, 0, 0, 0, 0, 0, 0, 0, 0, 0, 0, 0, 0, 0, 0, 0, 0, 0, 0, 0, 0, 0, 0, 0, 0], [0, 0, 0, 0, 0, 0, 0, 0, 0, 0, 0, 0, 0, 0, 0, 0, 0, 0, 0, 0, 0, 0, 0, 0, 0, 0, 0, 0, 0, 0, 0, 0, 0, 0, 0, 0, 0, 0, 0, 0], [0, 0, 0, 0, 0, 0, 0, 0, 0, 0, 0, 0, 0, 0, 0, 0, 0, 0, 0, 0, 0, 0, 0, 0, 0, 0, 0, 0, 0, 0, 0, 0, 0, 0, 0, 0, 0, 0, 0, 0], [0, 0, 0, 0, 0, 0, 0, 0, 0, 0, 0, 0, 0, 0, 0, 0, 0, 0, 0, 0, 0, 0, 0, 0, 0, 0, 0, 0, 0, 0, 0, 0, 0, 0, 0, 0, 0, 0, 0, 0], [0, 0, 0, 0, 0, 0, 0, 0, 0, 0, 0, 0, 0, 0, 0, 0, 0, 0, 0, 0, 0, 0, 0, 0, 0, 0, 0, 0, 0, 0, 0, 0, 0, 0, 0, 0, 0, 0, 0, 0], [0, 0, 0, 0, 0, 0, 0, 0, 0, 0, 0, 0, 0, 0, 0, 0, 0, 0, 0, 0, 0, 0, 0, 0, 0, 0, 0, 0, 0, 0, 0, 0, 0, 0, 0, 0, 0, 0, 0, 0], [0, 0, 0, 0, 0, 0, 0, 0, 0, 0, 0, 0, 0, 0, 0, 0, 0, 0, 0, 0, 0, 0, 0, 0, 0, 0, 0, 0, 0, 0, 0, 0, 0, 0, 0, 0, 0, 0, 0, 0]]];

q = [[[7], [7], [8], [8], [17], [18], [22], [12], [16], [12], [11], [20], [22], [12], [16], [6], [25], [18], [8], [13], [7], [15], [13], [20], [8], [13], [7], [12], [14], [22], [22], [16], [8], [15], [19], [24], [25], [10], [16], [6]], [[14], [5], [20], [20], [23], [18], [17], [7], [16], [12], [6], [5], [22], [25], [18], [5], [25], [16], [19], [7], [21], [12], [6], [12], [23], [20], [16], [5], [15], [14], [15], [18], [19], [10], [5], [22], [6], [10], [22], [17]], [[9], [24], [18], [24], [24], [19], [8], [16], [19], [11], [16], [17], [24], [12], [15], [15], [5], [25], [18], [15], [13], [21], [18], [7], [15], [22], [10], [16], [21], [22], [7], [14], [20], [24], [5], [25], [22], [22], [19], [21]], [[9], [22], [14], [21], [6], [16], [20], [22], [9], [17], [11], [24], [9], [13], [20], [11], [11], [16], [11], [10], [8], [16], [20], [7], [8], [6], [13], [12], [8], [23], [10], [16], [18], [19], [21], [8], [19], [14], [7], [25]], [[14], [7], [7], [5], [6], [18], [16], [18], [9], [18], [8], [9], [21], [18], [22], [5], [8], [6], [23], [6], [6], [6], [24], [12], [18], [23], [7], [20], [12], [16], [24], [24], [8], [25], [6], [17], [11], [25], [24], [10]], [[8], [10], [21], [15], [14], [5], [18], [15], [5], [8], [12], [17], [5], [14], [20], [24], [9], [18], [23], [12], [18], [14], [13], [21], [24], [14], [13], [8], [7], [10], [12], [10], [20], [14], [10], [21], [19], [15], [15], [17]], [[21], [9], [10], [24], [13], [7], [14], [25], [18], [19], [6], [19], [22], [13], [18], [14], [7], [6], [14], [23], [15], [21], [15], [23], [16], [20], [19], [20], [20], [16], [15], [21], [10], [6], [11], [22], [8], [13], [9], [21]], [[18], [7], [17], [12], [5], [16], [21], [8], [6], [20], [18], [23], [7], [18], [5], [18], [5], [8], [8], [13], [24], [22], [16], [25], [8], [7], [5], [5], [18], [12], [22], [23], [11], [17], [14], [24], [20], [23], [20], [10]]];
Q = [[57], [58], [67], [57], [56], [56], [62], [57]];
